(set-info :smt-lib-version 2.6)
(set-logic QF_NIA)
(set-info :source |
Generated by: Cristina Borralleras, Daniel Larraz, Albert Oliveras, Enric Rodriguez-Carbonell, Albert Rubio
Generated on: 2017-04-27
Generator: VeryMax
Application: Termination proving
Target solver: barcelogic
|)
(set-info :license "https://creativecommons.org/licenses/by/4.0/")
(set-info :category "industrial")
(set-info :status unknown)
(declare-fun Nl2i^01 () Int)
(declare-fun Nl2j^01 () Int)
(declare-fun Nl2i^02 () Int)
(declare-fun Nl2j^02 () Int)
(declare-fun Nl2i^03 () Int)
(declare-fun Nl2j^03 () Int)
(declare-fun lam0n0 () Int)
(declare-fun lam0n1 () Int)
(declare-fun lam0n2 () Int)
(declare-fun lam0n3 () Int)
(declare-fun lam0n4 () Int)
(declare-fun Nl2CT1 () Int)
(declare-fun Nl2CT2 () Int)
(declare-fun Nl2CT3 () Int)
(declare-fun lam1n0 () Int)
(declare-fun lam1n1 () Int)
(declare-fun lam1n2 () Int)
(declare-fun lam1n3 () Int)
(declare-fun lam1n4 () Int)
(declare-fun lam2n0 () Int)
(declare-fun lam2n1 () Int)
(declare-fun lam2n2 () Int)
(declare-fun lam2n3 () Int)
(declare-fun lam2n4 () Int)
(declare-fun lam3n0 () Int)
(declare-fun lam3n1 () Int)
(declare-fun lam3n2 () Int)
(declare-fun lam3n3 () Int)
(declare-fun lam3n4 () Int)
(declare-fun lam4n0 () Int)
(declare-fun lam4n1 () Int)
(declare-fun lam5n0 () Int)
(declare-fun lam5n1 () Int)
(declare-fun lam6n0 () Int)
(declare-fun lam6n1 () Int)
(declare-fun i^0 () Int)
(declare-fun j^0 () Int)
(declare-fun lam10n0 () Int)
(declare-fun lam10n1 () Int)
(declare-fun lam10n2 () Int)
(declare-fun lam10n3 () Int)
(declare-fun lam10n4 () Int)
(declare-fun lam10n5 () Int)
(declare-fun lam10n6 () Int)
(declare-fun RFN1_CT () Int)
(declare-fun RFN1_i^0 () Int)
(declare-fun RFN1_j^0 () Int)
(declare-fun lam8n0 () Int)
(declare-fun lam8n1 () Int)
(declare-fun lam8n2 () Int)
(declare-fun lam8n3 () Int)
(declare-fun lam8n4 () Int)
(declare-fun lam8n5 () Int)
(declare-fun lam8n6 () Int)
(declare-fun lam9n0 () Int)
(declare-fun lam9n1 () Int)
(declare-fun lam9n2 () Int)
(declare-fun lam9n3 () Int)
(declare-fun lam9n4 () Int)
(declare-fun lam9n5 () Int)
(declare-fun lam9n6 () Int)
(declare-fun lam7n0 () Int)
(declare-fun lam7n1 () Int)
(declare-fun lam7n2 () Int)
(declare-fun lam7n3 () Int)
(declare-fun lam7n4 () Int)
(declare-fun lam7n5 () Int)
(declare-fun lam7n6 () Int)
(assert ( and ( <= ( - 2 ) Nl2i^01 ) ( <= Nl2i^01 2 ) ( <= ( - 2 ) Nl2j^01 ) ( <= Nl2j^01 2 ) ( <= ( - 2 ) Nl2i^02 ) ( <= Nl2i^02 2 ) ( <= ( - 2 ) Nl2j^02 ) ( <= Nl2j^02 2 ) ( <= ( - 2 ) Nl2i^03 ) ( <= Nl2i^03 2 ) ( <= ( - 2 ) Nl2j^03 ) ( <= Nl2j^03 2 ) ))
(assert ( or ( and ( >= lam0n0 0 ) ( >= lam0n1 0 ) ( >= lam0n2 0 ) ( >= lam0n3 0 ) ( >= lam0n4 0 ) ( > ( + ( * ( - 1 ) lam0n0 ) ( * ( - 1 ) lam0n1 ) ( * Nl2CT1 lam0n2 ) ( * Nl2CT2 lam0n3 ) ( * Nl2CT3 lam0n4 ) ( - 1 ) ) 0 ) ( = ( + ( * 1 lam0n0 ) ( * ( - 1 ) lam0n1 ) ( * Nl2i^01 lam0n2 ) ( * Nl2i^02 lam0n3 ) ( * Nl2i^03 lam0n4 ) ) 0 ) ( = ( + ( * ( - 1 ) lam0n0 ) ( * ( - 1 ) lam0n1 ) ( * Nl2j^01 lam0n2 ) ( * Nl2j^02 lam0n3 ) ( * Nl2j^03 lam0n4 ) ) 0 ) ) ( and ( >= lam1n0 0 ) ( >= lam1n1 0 ) ( >= lam1n2 0 ) ( >= lam1n3 0 ) ( >= lam1n4 0 ) ( > ( + ( * ( - 1 ) lam1n0 ) ( * ( - 1 ) lam1n1 ) ( * Nl2CT1 lam1n2 ) ( * Nl2CT2 lam1n3 ) ( * Nl2CT3 lam1n4 ) ( - 1 ( + ( + Nl2CT1 ( * Nl2i^01 1 ) ) ( * Nl2j^01 2 ) ) ) ) 0 ) ( = ( + ( * 1 lam1n0 ) ( * ( - 1 ) lam1n1 ) ( * Nl2i^01 lam1n2 ) ( * Nl2i^02 lam1n3 ) ( * Nl2i^03 lam1n4 ) ( - ( + 0 ( * Nl2i^01 1 ) ) ) ) 0 ) ( = ( + ( * ( - 1 ) lam1n0 ) ( * ( - 1 ) lam1n1 ) ( * Nl2j^01 lam1n2 ) ( * Nl2j^02 lam1n3 ) ( * Nl2j^03 lam1n4 ) ( - ( + 0 ( * Nl2j^01 1 ) ) ) ) 0 ) ) ))
(assert ( or ( and ( >= lam0n0 0 ) ( >= lam0n1 0 ) ( >= lam0n2 0 ) ( >= lam0n3 0 ) ( >= lam0n4 0 ) ( > ( + ( * ( - 1 ) lam0n0 ) ( * ( - 1 ) lam0n1 ) ( * Nl2CT1 lam0n2 ) ( * Nl2CT2 lam0n3 ) ( * Nl2CT3 lam0n4 ) ( - 1 ) ) 0 ) ( = ( + ( * 1 lam0n0 ) ( * ( - 1 ) lam0n1 ) ( * Nl2i^01 lam0n2 ) ( * Nl2i^02 lam0n3 ) ( * Nl2i^03 lam0n4 ) ) 0 ) ( = ( + ( * ( - 1 ) lam0n0 ) ( * ( - 1 ) lam0n1 ) ( * Nl2j^01 lam0n2 ) ( * Nl2j^02 lam0n3 ) ( * Nl2j^03 lam0n4 ) ) 0 ) ) ( and ( >= lam2n0 0 ) ( >= lam2n1 0 ) ( >= lam2n2 0 ) ( >= lam2n3 0 ) ( >= lam2n4 0 ) ( > ( + ( * ( - 1 ) lam2n0 ) ( * ( - 1 ) lam2n1 ) ( * Nl2CT1 lam2n2 ) ( * Nl2CT2 lam2n3 ) ( * Nl2CT3 lam2n4 ) ( - 1 ( + ( + Nl2CT2 ( * Nl2i^02 1 ) ) ( * Nl2j^02 2 ) ) ) ) 0 ) ( = ( + ( * 1 lam2n0 ) ( * ( - 1 ) lam2n1 ) ( * Nl2i^01 lam2n2 ) ( * Nl2i^02 lam2n3 ) ( * Nl2i^03 lam2n4 ) ( - ( + 0 ( * Nl2i^02 1 ) ) ) ) 0 ) ( = ( + ( * ( - 1 ) lam2n0 ) ( * ( - 1 ) lam2n1 ) ( * Nl2j^01 lam2n2 ) ( * Nl2j^02 lam2n3 ) ( * Nl2j^03 lam2n4 ) ( - ( + 0 ( * Nl2j^02 1 ) ) ) ) 0 ) ) ))
(assert ( or ( and ( >= lam0n0 0 ) ( >= lam0n1 0 ) ( >= lam0n2 0 ) ( >= lam0n3 0 ) ( >= lam0n4 0 ) ( > ( + ( * ( - 1 ) lam0n0 ) ( * ( - 1 ) lam0n1 ) ( * Nl2CT1 lam0n2 ) ( * Nl2CT2 lam0n3 ) ( * Nl2CT3 lam0n4 ) ( - 1 ) ) 0 ) ( = ( + ( * 1 lam0n0 ) ( * ( - 1 ) lam0n1 ) ( * Nl2i^01 lam0n2 ) ( * Nl2i^02 lam0n3 ) ( * Nl2i^03 lam0n4 ) ) 0 ) ( = ( + ( * ( - 1 ) lam0n0 ) ( * ( - 1 ) lam0n1 ) ( * Nl2j^01 lam0n2 ) ( * Nl2j^02 lam0n3 ) ( * Nl2j^03 lam0n4 ) ) 0 ) ) ( and ( >= lam3n0 0 ) ( >= lam3n1 0 ) ( >= lam3n2 0 ) ( >= lam3n3 0 ) ( >= lam3n4 0 ) ( > ( + ( * ( - 1 ) lam3n0 ) ( * ( - 1 ) lam3n1 ) ( * Nl2CT1 lam3n2 ) ( * Nl2CT2 lam3n3 ) ( * Nl2CT3 lam3n4 ) ( - 1 ( + ( + Nl2CT3 ( * Nl2i^03 1 ) ) ( * Nl2j^03 2 ) ) ) ) 0 ) ( = ( + ( * 1 lam3n0 ) ( * ( - 1 ) lam3n1 ) ( * Nl2i^01 lam3n2 ) ( * Nl2i^02 lam3n3 ) ( * Nl2i^03 lam3n4 ) ( - ( + 0 ( * Nl2i^03 1 ) ) ) ) 0 ) ( = ( + ( * ( - 1 ) lam3n0 ) ( * ( - 1 ) lam3n1 ) ( * Nl2j^01 lam3n2 ) ( * Nl2j^02 lam3n3 ) ( * Nl2j^03 lam3n4 ) ( - ( + 0 ( * Nl2j^03 1 ) ) ) ) 0 ) ) ))
(assert ( and ( = i^0 0 ) ( = j^0 0 ) ( <= ( + Nl2CT1 ( * ( + 0 Nl2i^01 ) i^0 ) ( * ( + 0 Nl2j^01 ) j^0 ) ) 0 ) ( <= ( + Nl2CT2 ( * ( + 0 Nl2i^02 ) i^0 ) ( * ( + 0 Nl2j^02 ) j^0 ) ) 0 ) ( <= ( + Nl2CT3 ( * ( + 0 Nl2i^03 ) i^0 ) ( * ( + 0 Nl2j^03 ) j^0 ) ) 0 ) ( <= ( + ( - 1 ) ( * ( - 1 ) i^0 ) ( * ( - 1 ) j^0 ) ) 0 ) ( <= ( + ( - 1 ) i^0 ( * ( - 1 ) j^0 ) ) 0 ) ))
(assert ( or ( and ( and ( >= lam10n0 0 ) ( >= lam10n1 0 ) ( >= lam10n2 0 ) ( >= lam10n3 0 ) ( >= lam10n4 0 ) ( >= lam10n5 0 ) ( >= lam10n6 0 ) ( > ( + ( * ( - 1 ) lam10n0 ) ( * 50001 lam10n1 ) ( * 50001 lam10n2 ) ( * 50001 lam10n3 ) ( * Nl2CT1 lam10n4 ) ( * Nl2CT2 lam10n5 ) ( * Nl2CT3 lam10n6 ) ( - 1 ( - ( + ( + RFN1_CT ( * RFN1_i^0 1 ) ) ( * RFN1_j^0 2 ) ) RFN1_CT ) ) ) 0 ) ( = ( + ( * ( - 1 ) lam10n0 ) ( * 1 lam10n1 ) ( * ( - 1 ) lam10n2 ) ( * Nl2i^01 lam10n4 ) ( * Nl2i^02 lam10n5 ) ( * Nl2i^03 lam10n6 ) ( - ( - ( + 0 ( * RFN1_i^0 1 ) ) RFN1_i^0 ) ) ) 0 ) ( = ( + ( * ( - 1 ) lam10n0 ) ( * ( - 1 ) lam10n1 ) ( * ( - 1 ) lam10n3 ) ( * Nl2j^01 lam10n4 ) ( * Nl2j^02 lam10n5 ) ( * Nl2j^03 lam10n6 ) ( - ( - ( + 0 ( * RFN1_j^0 1 ) ) RFN1_j^0 ) ) ) 0 ) ) ( and ( and ( >= lam8n0 0 ) ( >= lam8n1 0 ) ( >= lam8n2 0 ) ( >= lam8n3 0 ) ( >= lam8n4 0 ) ( >= lam8n5 0 ) ( >= lam8n6 0 ) ( > ( + ( * ( - 1 ) lam8n0 ) ( * 50001 lam8n1 ) ( * 50001 lam8n2 ) ( * 50001 lam8n3 ) ( * Nl2CT1 lam8n4 ) ( * Nl2CT2 lam8n5 ) ( * Nl2CT3 lam8n6 ) ( - 1 ( - RFN1_CT ) ) ) 0 ) ( = ( + ( * ( - 1 ) lam8n0 ) ( * 1 lam8n1 ) ( * ( - 1 ) lam8n2 ) ( * Nl2i^01 lam8n4 ) ( * Nl2i^02 lam8n5 ) ( * Nl2i^03 lam8n6 ) ( - ( - RFN1_i^0 ) ) ) 0 ) ( = ( + ( * ( - 1 ) lam8n0 ) ( * ( - 1 ) lam8n1 ) ( * ( - 1 ) lam8n3 ) ( * Nl2j^01 lam8n4 ) ( * Nl2j^02 lam8n5 ) ( * Nl2j^03 lam8n6 ) ( - ( - RFN1_j^0 ) ) ) 0 ) ) ( and ( >= lam9n0 0 ) ( >= lam9n1 0 ) ( >= lam9n2 0 ) ( >= lam9n3 0 ) ( >= lam9n4 0 ) ( >= lam9n5 0 ) ( >= lam9n6 0 ) ( > ( + ( * ( - 1 ) lam9n0 ) ( * 50001 lam9n1 ) ( * 50001 lam9n2 ) ( * 50001 lam9n3 ) ( * Nl2CT1 lam9n4 ) ( * Nl2CT2 lam9n5 ) ( * Nl2CT3 lam9n6 ) ( - 1 ( + ( - ( + ( + RFN1_CT ( * RFN1_i^0 1 ) ) ( * RFN1_j^0 2 ) ) RFN1_CT ) 1 ) ) ) 0 ) ( = ( + ( * ( - 1 ) lam9n0 ) ( * 1 lam9n1 ) ( * ( - 1 ) lam9n2 ) ( * Nl2i^01 lam9n4 ) ( * Nl2i^02 lam9n5 ) ( * Nl2i^03 lam9n6 ) ( - ( - ( + 0 ( * RFN1_i^0 1 ) ) RFN1_i^0 ) ) ) 0 ) ( = ( + ( * ( - 1 ) lam9n0 ) ( * ( - 1 ) lam9n1 ) ( * ( - 1 ) lam9n3 ) ( * Nl2j^01 lam9n4 ) ( * Nl2j^02 lam9n5 ) ( * Nl2j^03 lam9n6 ) ( - ( - ( + 0 ( * RFN1_j^0 1 ) ) RFN1_j^0 ) ) ) 0 ) ) ) ) ( and ( >= lam7n0 0 ) ( >= lam7n1 0 ) ( >= lam7n2 0 ) ( >= lam7n3 0 ) ( >= lam7n4 0 ) ( >= lam7n5 0 ) ( >= lam7n6 0 ) ( > ( + ( * ( - 1 ) lam7n0 ) ( * 50001 lam7n1 ) ( * 50001 lam7n2 ) ( * 50001 lam7n3 ) ( * Nl2CT1 lam7n4 ) ( * Nl2CT2 lam7n5 ) ( * Nl2CT3 lam7n6 ) ( - 1 ) ) 0 ) ( = ( + ( * ( - 1 ) lam7n0 ) ( * 1 lam7n1 ) ( * ( - 1 ) lam7n2 ) ( * Nl2i^01 lam7n4 ) ( * Nl2i^02 lam7n5 ) ( * Nl2i^03 lam7n6 ) ) 0 ) ( = ( + ( * ( - 1 ) lam7n0 ) ( * ( - 1 ) lam7n1 ) ( * ( - 1 ) lam7n3 ) ( * Nl2j^01 lam7n4 ) ( * Nl2j^02 lam7n5 ) ( * Nl2j^03 lam7n6 ) ) 0 ) ) ))
(check-sat)
(exit)
